data/solutions/recovery/degenerate/moderate/flexible/degenerate_moderate_instance36/4.sol
Elapsed time: 100.07
Upper bound: 1410181758.0
Planning weighted value: 37736460768.0
C[0]=1410181758.0
C[1]=1410098253.0
C[2]=1410027430.0
C[3]=1409695573.0
C[4]=0.0
y[0]=2
y[1]=1
y[2]=1
y[3]=1
y[4]=1
y[5]=3
y[6]=1
y[7]=2
y[8]=0
y[9]=1
y[10]=1
y[11]=2
y[12]=1
y[13]=3
y[14]=1
y[15]=3
y[16]=1
y[17]=1
y[18]=2
y[19]=2
y[20]=1
y[21]=3
y[22]=1
y[23]=3
y[24]=1
y[25]=0
y[26]=0
y[27]=1
y[28]=3
y[29]=2
y[30]=1
y[31]=0
y[32]=1
y[33]=0
y[34]=2
y[35]=3
y[36]=0
y[37]=1
y[38]=1
y[39]=2
y[40]=1
y[41]=1
y[42]=1
y[43]=1
y[44]=3
y[45]=0
