data/solutions/recovery/degenerate/moderate/flexible/degenerate_moderate_instance36/4.log

Log started (V12.6.3.0) Sat Apr 21 11:07:54 2018

New value for default parallel thread count: 1

Problem '/tmp/tmp4Y8e4x.pyomo.lp' read.
Read time = 0.00 sec. (0.11 ticks)

Problem name         : /tmp/tmp4Y8e4x.pyomo.lp
Objective sense      : Minimize
Variables            :     237  [Nneg: 1,  Binary: 230,  General Integer: 6]
Objective nonzeros   :       1
Linear constraints   :     104  [Less: 51,  Equal: 53]
  Nonzeros           :    7698
  RHS nonzeros       :      93

Variables            : Min LB: 0.000000         Max UB: 1.000000       
Objective nonzeros   : Min   : 1.000000         Max   : 1.000000       
Linear constraints   :
  Nonzeros           : Min   : 1.000000         Max   : 2.657465e+08   
  RHS nonzeros       : Min   : 1.000000         Max   : 5.000000       
Tried aggregator 1 time.
MIP Presolve eliminated 49 rows and 48 columns.
Reduced MIP has 55 rows, 189 columns, and 497 nonzeros.
Reduced MIP has 184 binaries, 5 generals, 0 SOSs, and 0 indicators.
Presolve time = 0.00 sec. (1.39 ticks)
Found incumbent of value 2.6089358e+09 after 0.00 sec. (1.64 ticks)
Probing time = 0.00 sec. (0.37 ticks)
Tried aggregator 1 time.
Reduced MIP has 55 rows, 189 columns, and 497 nonzeros.
Reduced MIP has 184 binaries, 5 generals, 0 SOSs, and 0 indicators.
Presolve time = 0.00 sec. (0.31 ticks)
Probing time = 0.00 sec. (0.37 ticks)
Clique table members: 46.
MIP emphasis: balance optimality and feasibility.
MIP search method: dynamic search.
Parallel mode: none, using 1 thread.
Root relaxation solution time = 0.00 sec. (0.77 ticks)

        Nodes                                         Cuts/
   Node  Left     Objective  IInf  Best Integer    Best Bound    ItCnt     Gap

*     0+    0                       2.60894e+09        0.0000           100.00%
      0     0   1.41000e+09    13   2.60894e+09   1.41000e+09      139   45.95%
      0     0   1.41000e+09     8   2.60894e+09      Fract: 2      145   45.95%
      0     0   1.41000e+09     8   2.60894e+09      Fract: 1      151   45.95%
*     0+    0                       1.47534e+09   1.41000e+09             4.43%
*     0+    0                       1.45153e+09   1.41000e+09             2.86%
      0     2   1.41000e+09     8   1.45153e+09   1.41000e+09      151    2.86%
Elapsed time = 0.02 sec. (10.49 ticks, tree = 0.01 MB, solutions = 3)
*    20+   20                       1.43187e+09   1.41000e+09             1.53%
*   120+  108                       1.42808e+09   1.41000e+09             1.27%
*   140+  127                       1.42301e+09   1.41000e+09             0.91%
*   160+  146                       1.42228e+09   1.41000e+09             0.86%
*   253   183      integral     0   1.41759e+09   1.41000e+09      768    0.54%
*   353+  244                       1.41737e+09   1.41000e+09             0.52%
*   680+  491                       1.41678e+09   1.41000e+09             0.48%
*   757   525      integral     0   1.41413e+09   1.41000e+09     2161    0.29%
*   900+  595                       1.41113e+09   1.41000e+09             0.08%
   1513   154   1.41000e+09     6   1.41113e+09   1.41000e+09     4267    0.08%
   1514   155   1.41000e+09     6   1.41113e+09   1.41000e+09     4268    0.08%
   1515   156   1.41000e+09     6   1.41113e+09   1.41000e+09     4269    0.08%
   1516   157   1.41000e+09     6   1.41113e+09   1.41000e+09     4270    0.08%
   1517   158   1.41000e+09     6   1.41113e+09   1.41000e+09     4271    0.08%
   1518   159   1.41000e+09     6   1.41113e+09   1.41000e+09     4274    0.08%
   1519   160   1.41000e+09     6   1.41113e+09   1.41000e+09     4275    0.08%
   1520   161   1.41000e+09     6   1.41113e+09   1.41000e+09     4276    0.08%
   1521   162   1.41000e+09     6   1.41113e+09   1.41000e+09     4277    0.08%
*  2213+  235                       1.41038e+09   1.41000e+09             0.03%
   4878   765   1.41000e+09     6   1.41038e+09   1.41000e+09    11864    0.03%
Elapsed time = 1.09 sec. (964.23 ticks, tree = 0.23 MB, solutions = 13)
* 10773+ 1839                       1.41031e+09   1.41000e+09             0.02%
  10807  1828        cutoff         1.41031e+09   1.41000e+09    29336    0.02%
  10808  1827        cutoff         1.41031e+09   1.41000e+09    29338    0.02%
  10809  1826        cutoff         1.41031e+09   1.41000e+09    29342    0.02%
  10810  1825        cutoff         1.41031e+09   1.41000e+09    29346    0.02%
  10811  1824        cutoff         1.41031e+09   1.41000e+09    29350    0.02%
  10812  1823        cutoff         1.41031e+09   1.41000e+09    29360    0.02%
  10813  1822        cutoff         1.41031e+09   1.41000e+09    29371    0.02%
  10814  1821        cutoff         1.41031e+09   1.41000e+09    29377    0.02%
  10815  1820    infeasible         1.41031e+09   1.41000e+09    29377    0.02%
  10816  1820   1.41000e+09     6   1.41031e+09   1.41000e+09    29379    0.02%
Elapsed time = 2.15 sec. (1919.14 ticks, tree = 0.52 MB, solutions = 14)
  19286  2664   1.41012e+09     8   1.41031e+09   1.41000e+09    54424    0.02%
  19287  2664   1.41012e+09     8   1.41031e+09   1.41000e+09    54425    0.02%
  19288  2663        cutoff         1.41031e+09   1.41000e+09    54431    0.02%
  19289  2662        cutoff         1.41031e+09   1.41000e+09    54438    0.02%
  19290  2661    infeasible         1.41031e+09   1.41000e+09    54438    0.02%
  19291  2660        cutoff         1.41031e+09   1.41000e+09    54441    0.02%
  19292  2661   1.41000e+09     5   1.41031e+09   1.41000e+09    54442    0.02%
  19293  2662   1.41000e+09     6   1.41031e+09   1.41000e+09    54443    0.02%
  19294  2663   1.41000e+09     6   1.41031e+09   1.41000e+09    54445    0.02%
  19295  2664   1.41000e+09     6   1.41031e+09   1.41000e+09    54446    0.02%
Elapsed time = 3.23 sec. (2874.13 ticks, tree = 0.80 MB, solutions = 14)
  26550  3189        cutoff         1.41031e+09   1.41000e+09    81035    0.02%
  26551  3188    infeasible         1.41031e+09   1.41000e+09    81045    0.02%
  26552  3189   1.41000e+09     8   1.41031e+09   1.41000e+09    81046    0.02%
  26553  3190   1.41000e+09     6   1.41031e+09   1.41000e+09    81047    0.02%
  26554  3189        cutoff         1.41031e+09   1.41000e+09    81049    0.02%
  26555  3190   1.41000e+09     6   1.41031e+09   1.41000e+09    81050    0.02%
  26556  3191   1.41000e+09     6   1.41031e+09   1.41000e+09    81051    0.02%
  26557  3192   1.41000e+09     6   1.41031e+09   1.41000e+09    81052    0.02%
  26558  3191        cutoff         1.41031e+09   1.41000e+09    81054    0.02%
  26559  3192   1.41000e+09     6   1.41031e+09   1.41000e+09    81055    0.02%
Elapsed time = 4.30 sec. (3828.65 ticks, tree = 0.94 MB, solutions = 14)
  35409  3390    infeasible         1.41031e+09   1.41000e+09   107391    0.02%
  35410  3389        cutoff         1.41031e+09   1.41000e+09   107392    0.02%
  35411  3388    infeasible         1.41031e+09   1.41000e+09   107392    0.02%
  35412  3387        cutoff         1.41031e+09   1.41000e+09   107395    0.02%
  35413  3386    infeasible         1.41031e+09   1.41000e+09   107398    0.02%
  35414  3385        cutoff         1.41031e+09   1.41000e+09   107399    0.02%
  35415  3384        cutoff         1.41031e+09   1.41000e+09   107401    0.02%
  35416  3383        cutoff         1.41031e+09   1.41000e+09   107403    0.02%
  35417  3382    infeasible         1.41031e+09   1.41000e+09   107405    0.02%
  35418  3381        cutoff         1.41031e+09   1.41000e+09   107407    0.02%
Elapsed time = 5.36 sec. (4784.19 ticks, tree = 0.99 MB, solutions = 14)
  42018  3745    infeasible         1.41031e+09   1.41000e+09   132144    0.02%
  42019  3744        cutoff         1.41031e+09   1.41000e+09   132150    0.02%
  42020  3743        cutoff         1.41031e+09   1.41000e+09   132157    0.02%
  42021  3742        cutoff         1.41031e+09   1.41000e+09   132164    0.02%
  42022  3741        cutoff         1.41031e+09   1.41000e+09   132170    0.02%
  42023  3740        cutoff         1.41031e+09   1.41000e+09   132177    0.02%
  42024  3739    infeasible         1.41031e+09   1.41000e+09   132183    0.02%
  42025  3738        cutoff         1.41031e+09   1.41000e+09   132189    0.02%
  42026  3737        cutoff         1.41031e+09   1.41000e+09   132196    0.02%
  42027  3736    infeasible         1.41031e+09   1.41000e+09   132203    0.02%
Elapsed time = 6.42 sec. (5741.02 ticks, tree = 1.09 MB, solutions = 14)
  50844  4907        cutoff         1.41031e+09   1.41000e+09   159760    0.02%
  50845  4906    infeasible         1.41031e+09   1.41000e+09   159760    0.02%
  50846  4905        cutoff         1.41031e+09   1.41000e+09   159764    0.02%
  50847  4904        cutoff         1.41031e+09   1.41000e+09   159766    0.02%
  50848  4903    infeasible         1.41031e+09   1.41000e+09   159771    0.02%
  50849  4902    infeasible         1.41031e+09   1.41000e+09   159771    0.02%
  50850  4901    infeasible         1.41031e+09   1.41000e+09   159827    0.02%
  50851  4902   1.41000e+09     6   1.41031e+09   1.41000e+09   159828    0.02%
  50852  4903   1.41000e+09     6   1.41031e+09   1.41000e+09   159829    0.02%
  50853  4904   1.41000e+09     6   1.41031e+09   1.41000e+09   159830    0.02%
Elapsed time = 7.47 sec. (6696.88 ticks, tree = 1.49 MB, solutions = 14)
  59946  5859   1.41000e+09     6   1.41031e+09   1.41000e+09   185344    0.02%
  59947  5860   1.41000e+09     6   1.41031e+09   1.41000e+09   185346    0.02%
  59948  5861   1.41000e+09     8   1.41031e+09   1.41000e+09   185349    0.02%
  59949  5862   1.41000e+09     8   1.41031e+09   1.41000e+09   185352    0.02%
  59950  5863   1.41000e+09     6   1.41031e+09   1.41000e+09   185353    0.02%
  59951  5864   1.41000e+09     6   1.41031e+09   1.41000e+09   185355    0.02%
  59952  5863    infeasible         1.41031e+09   1.41000e+09   185355    0.02%
  59953  5864   1.41000e+09     6   1.41031e+09   1.41000e+09   185357    0.02%
  59954  5863        cutoff         1.41031e+09   1.41000e+09   185363    0.02%
  59955  5862    infeasible         1.41031e+09   1.41000e+09   185363    0.02%
Elapsed time = 8.57 sec. (7650.93 ticks, tree = 1.74 MB, solutions = 14)
  68109  5727        cutoff         1.41031e+09   1.41000e+09   213493    0.02%
  68110  5728   1.41000e+09     8   1.41031e+09   1.41000e+09   213494    0.02%
  68111  5727        cutoff         1.41031e+09   1.41000e+09   213509    0.02%
  68112  5728   1.41000e+09    10   1.41031e+09   1.41000e+09   213511    0.02%
  68113  5729   1.41000e+09     8   1.41031e+09   1.41000e+09   213513    0.02%
  68114  5730   1.41000e+09    10   1.41031e+09   1.41000e+09   213515    0.02%
  68115  5731   1.41000e+09     8   1.41031e+09   1.41000e+09   213516    0.02%
  68116  5732   1.41000e+09     8   1.41031e+09   1.41000e+09   213517    0.02%
  68117  5733   1.41000e+09    10   1.41031e+09   1.41000e+09   213519    0.02%
  68118  5734   1.41000e+09     6   1.41031e+09   1.41000e+09   213520    0.02%
Elapsed time = 10.04 sec. (8605.46 ticks, tree = 1.71 MB, solutions = 14)
  78185  5003    infeasible         1.41031e+09   1.41000e+09   245119    0.02%
  78186  5002    infeasible         1.41031e+09   1.41000e+09   245119    0.02%
  78187  5001    infeasible         1.41031e+09   1.41000e+09   245119    0.02%
  78188  5000        cutoff         1.41031e+09   1.41000e+09   245123    0.02%
  78189  4999        cutoff         1.41031e+09   1.41000e+09   245126    0.02%
  78190  4998    infeasible         1.41031e+09   1.41000e+09   245126    0.02%
  78191  4997        cutoff         1.41031e+09   1.41000e+09   245136    0.02%
  78192  4996    infeasible         1.41031e+09   1.41000e+09   245136    0.02%
  78193  4995        cutoff         1.41031e+09   1.41000e+09   245144    0.02%
 107209  4300        cutoff         1.41031e+09   1.41000e+09   339767    0.02%
Elapsed time = 14.53 sec. (12420.23 ticks, tree = 1.35 MB, solutions = 14)
 143013  2537   1.41000e+09     6   1.41031e+09   1.41000e+09   453480    0.02%
 143014  2538   1.41000e+09     6   1.41031e+09   1.41000e+09   453481    0.02%
 143015  2539   1.41000e+09     6   1.41031e+09   1.41000e+09   453482    0.02%
 143016  2540   1.41000e+09     6   1.41031e+09   1.41000e+09   453483    0.02%
 143017  2541   1.41000e+09     8   1.41031e+09   1.41000e+09   453485    0.02%
 143018  2542   1.41000e+09     8   1.41031e+09   1.41000e+09   453486    0.02%
 143019  2543   1.41018e+09     4   1.41031e+09   1.41000e+09   453488    0.02%
 143020  2542    infeasible         1.41031e+09   1.41000e+09   453488    0.02%
 143021  2541    infeasible         1.41031e+09   1.41000e+09   453488    0.02%
 143022  2540        cutoff         1.41031e+09   1.41000e+09   453492    0.02%
Elapsed time = 19.06 sec. (16235.41 ticks, tree = 0.91 MB, solutions = 14)
 180011  6896   1.41000e+09     6   1.41031e+09   1.41000e+09   556305    0.02%
 180012  6897   1.41000e+09     6   1.41031e+09   1.41000e+09   556306    0.02%
 180013  6898   1.41000e+09     6   1.41031e+09   1.41000e+09   556307    0.02%
 180014  6899   1.41000e+09     6   1.41031e+09   1.41000e+09   556308    0.02%
 180015  6900   1.41000e+09     6   1.41031e+09   1.41000e+09   556309    0.02%
 180016  6901   1.41000e+09     6   1.41031e+09   1.41000e+09   556310    0.02%
 180017  6900        cutoff         1.41031e+09   1.41000e+09   556315    0.02%
 180018  6901   1.41000e+09     6   1.41031e+09   1.41000e+09   556317    0.02%
 180019  6900        cutoff         1.41031e+09   1.41000e+09   556325    0.02%
 180020  6899        cutoff         1.41031e+09   1.41000e+09   556332    0.02%
Elapsed time = 23.40 sec. (20051.08 ticks, tree = 2.12 MB, solutions = 14)
*184131  7028      integral     0   1.41025e+09   1.41000e+09   567399    0.02%
 217141 10785   1.41000e+09     6   1.41025e+09   1.41000e+09   653688    0.02%
 217142 10786   1.41000e+09     6   1.41025e+09   1.41000e+09   653689    0.02%
 217143 10787   1.41000e+09     6   1.41025e+09   1.41000e+09   653690    0.02%
 217144 10788   1.41000e+09     6   1.41025e+09   1.41000e+09   653691    0.02%
 217145 10789   1.41000e+09     6   1.41025e+09   1.41000e+09   653692    0.02%
 217146 10790   1.41000e+09     6   1.41025e+09   1.41000e+09   653693    0.02%
 217147 10791   1.41000e+09     8   1.41025e+09   1.41000e+09   653695    0.02%
 217148 10792   1.41000e+09     6   1.41025e+09   1.41000e+09   653696    0.02%
 217149 10793   1.41000e+09     6   1.41025e+09   1.41000e+09   653697    0.02%
 217150 10794   1.41000e+09     6   1.41025e+09   1.41000e+09   653698    0.02%
Elapsed time = 27.83 sec. (23866.14 ticks, tree = 3.46 MB, solutions = 15)
 255682 13308   1.41012e+09     4   1.41025e+09   1.41000e+09   743653    0.02%
 255683 13307    infeasible         1.41025e+09   1.41000e+09   743656    0.02%
 255684 13308   1.41012e+09     4   1.41025e+09   1.41000e+09   743658    0.02%
 255685 13307    infeasible         1.41025e+09   1.41000e+09   743660    0.02%
 255686 13306        cutoff         1.41025e+09   1.41000e+09   743664    0.02%
 255687 13305        cutoff         1.41025e+09   1.41000e+09   743668    0.02%
 255688 13304        cutoff         1.41025e+09   1.41000e+09   743674    0.02%
 255689 13303        cutoff         1.41025e+09   1.41000e+09   743680    0.02%
 255690 13302    infeasible         1.41025e+09   1.41000e+09   743680    0.02%
 255691 13301        cutoff         1.41025e+09   1.41000e+09   743684    0.02%
Elapsed time = 32.37 sec. (27681.96 ticks, tree = 4.24 MB, solutions = 15)
 291293 16037        cutoff         1.41025e+09   1.41000e+09   840999    0.02%
 291294 16036        cutoff         1.41025e+09   1.41000e+09   841008    0.02%
 291295 16035    infeasible         1.41025e+09   1.41000e+09   841008    0.02%
 291296 16034        cutoff         1.41025e+09   1.41000e+09   841013    0.02%
 291297 16033        cutoff         1.41025e+09   1.41000e+09   841018    0.02%
 291298 16032        cutoff         1.41025e+09   1.41000e+09   841021    0.02%
 291299 16031    infeasible         1.41025e+09   1.41000e+09   841025    0.02%
 291300 16030        cutoff         1.41025e+09   1.41000e+09   841028    0.02%
 291301 16031   1.41000e+09     8   1.41025e+09   1.41000e+09   841030    0.02%
 291302 16032   1.41000e+09     6   1.41025e+09   1.41000e+09   841033    0.02%
Elapsed time = 36.73 sec. (31498.47 ticks, tree = 5.03 MB, solutions = 15)
 328370 22634        cutoff         1.41025e+09   1.41000e+09   938033    0.02%
 328371 22633    infeasible         1.41025e+09   1.41000e+09   938033    0.02%
 328372 22634   1.41000e+09     6   1.41025e+09   1.41000e+09   938035    0.02%
 328373 22635   1.41000e+09     6   1.41025e+09   1.41000e+09   938036    0.02%
 328374 22634    infeasible         1.41025e+09   1.41000e+09   938036    0.02%
 328375 22635   1.41000e+09     6   1.41025e+09   1.41000e+09   938039    0.02%
 328376 22636   1.41000e+09     6   1.41025e+09   1.41000e+09   938040    0.02%
 328377 22637   1.41000e+09     6   1.41025e+09   1.41000e+09   938041    0.02%
 328378 22638   1.41000e+09     6   1.41025e+09   1.41000e+09   938042    0.02%
 328379 22639   1.41000e+09     8   1.41025e+09   1.41000e+09   938044    0.02%
Elapsed time = 41.02 sec. (35313.80 ticks, tree = 7.27 MB, solutions = 15)
 365079 25826        cutoff         1.41025e+09   1.41000e+09  1034326    0.02%
 365080 25825        cutoff         1.41025e+09   1.41000e+09  1034331    0.02%
 365081 25824        cutoff         1.41025e+09   1.41000e+09  1034337    0.02%
 365082 25823        cutoff         1.41025e+09   1.41000e+09  1034341    0.02%
 365083 25824   1.41000e+09     6   1.41025e+09   1.41000e+09  1034343    0.02%
 365084 25825   1.41000e+09     6   1.41025e+09   1.41000e+09  1034345    0.02%
 365085 25826   1.41000e+09     6   1.41025e+09   1.41000e+09  1034346    0.02%
 365086 25827   1.41000e+09     6   1.41025e+09   1.41000e+09  1034347    0.02%
 365087 25828   1.41000e+09     6   1.41025e+09   1.41000e+09  1034348    0.02%
 365088 25829   1.41000e+09     6   1.41025e+09   1.41000e+09  1034349    0.02%
Elapsed time = 45.45 sec. (39129.78 ticks, tree = 8.18 MB, solutions = 15)
 401297 29768        cutoff         1.41025e+09   1.41000e+09  1131885    0.02%
 401298 29767        cutoff         1.41025e+09   1.41000e+09  1131890    0.02%
 401299 29766    infeasible         1.41025e+09   1.41000e+09  1131890    0.02%
 401300 29765    infeasible         1.41025e+09   1.41000e+09  1131890    0.02%
 401301 29764    infeasible         1.41025e+09   1.41000e+09  1131890    0.02%
 401302 29763    infeasible         1.41025e+09   1.41000e+09  1131890    0.02%
 401303 29762        cutoff         1.41025e+09   1.41000e+09  1131897    0.02%
 401304 29761        cutoff         1.41025e+09   1.41000e+09  1131900    0.02%
 401305 29760        cutoff         1.41025e+09   1.41000e+09  1131902    0.02%
 401306 29759    infeasible         1.41025e+09   1.41000e+09  1131902    0.02%
Elapsed time = 49.79 sec. (42945.75 ticks, tree = 9.24 MB, solutions = 15)
*436713+32400                       1.41018e+09   1.41000e+09             0.01%
 437113 32512   1.41000e+09     6   1.41018e+09   1.41000e+09  1229664    0.01%
 437114 32513   1.41000e+09     6   1.41018e+09   1.41000e+09  1229666    0.01%
 437115 32514   1.41000e+09     6   1.41018e+09   1.41000e+09  1229668    0.01%
 437116 32513        cutoff         1.41018e+09   1.41000e+09  1229681    0.01%
 437117 32514   1.41000e+09     6   1.41018e+09   1.41000e+09  1229682    0.01%
 437118 32515   1.41000e+09     6   1.41018e+09   1.41000e+09  1229683    0.01%
 437119 32516   1.41000e+09     6   1.41018e+09   1.41000e+09  1229684    0.01%
 437120 32517   1.41000e+09     6   1.41018e+09   1.41000e+09  1229685    0.01%
 437121 32518   1.41000e+09     6   1.41018e+09   1.41000e+09  1229686    0.01%
 437122 32517        cutoff         1.41018e+09   1.41000e+09  1229694    0.01%
Elapsed time = 54.10 sec. (46797.86 ticks, tree = 10.85 MB, solutions = 16)
 475174 39653        cutoff         1.41018e+09   1.41000e+09  1336800    0.01%
 475175 39652        cutoff         1.41018e+09   1.41000e+09  1336804    0.01%
 475176 39651    infeasible         1.41018e+09   1.41000e+09  1336804    0.01%
 475177 39650    infeasible         1.41018e+09   1.41000e+09  1336810    0.01%
 475178 39649    infeasible         1.41018e+09   1.41000e+09  1336810    0.01%
 475179 39648        cutoff         1.41018e+09   1.41000e+09  1336814    0.01%
 475180 39647    infeasible         1.41018e+09   1.41000e+09  1336824    0.01%
 475181 39646        cutoff         1.41018e+09   1.41000e+09  1336827    0.01%
 475182 39645        cutoff         1.41018e+09   1.41000e+09  1336831    0.01%
 475183 39644        cutoff         1.41018e+09   1.41000e+09  1336837    0.01%
Elapsed time = 58.35 sec. (50614.51 ticks, tree = 12.73 MB, solutions = 16)
 512741 42094   1.41000e+09     6   1.41018e+09   1.41000e+09  1433602    0.01%
 512742 42095   1.41000e+09     6   1.41018e+09   1.41000e+09  1433603    0.01%
 512743 42096   1.41000e+09     6   1.41018e+09   1.41000e+09  1433604    0.01%
 512744 42097   1.41000e+09     6   1.41018e+09   1.41000e+09  1433605    0.01%
 512745 42098   1.41000e+09     6   1.41018e+09   1.41000e+09  1433609    0.01%
 512746 42099   1.41000e+09     6   1.41018e+09   1.41000e+09  1433610    0.01%
 512747 42100   1.41000e+09     6   1.41018e+09   1.41000e+09  1433611    0.01%
 512748 42101   1.41000e+09     6   1.41018e+09   1.41000e+09  1433613    0.01%
 512749 42102   1.41000e+09     6   1.41018e+09   1.41000e+09  1433614    0.01%
 512750 42103   1.41000e+09     5   1.41018e+09   1.41000e+09  1433615    0.01%
Elapsed time = 62.57 sec. (54429.67 ticks, tree = 13.39 MB, solutions = 16)
 549169 45609   1.41000e+09     6   1.41018e+09   1.41000e+09  1527556    0.01%
 549170 45609   1.41000e+09     6   1.41018e+09   1.41000e+09  1527557    0.01%
 549171 45609   1.41000e+09     6   1.41018e+09   1.41000e+09  1527558    0.01%
 549172 45609   1.41000e+09     6   1.41018e+09   1.41000e+09  1527559    0.01%
 549173 45610   1.41000e+09     6   1.41018e+09   1.41000e+09  1527560    0.01%
 549174 45611   1.41000e+09     6   1.41018e+09   1.41000e+09  1527561    0.01%
 549175 45612   1.41000e+09     6   1.41018e+09   1.41000e+09  1527562    0.01%
 549176 45613   1.41000e+09     6   1.41018e+09   1.41000e+09  1527563    0.01%
 549177 45614   1.41000e+09     6   1.41018e+09   1.41000e+09  1527564    0.01%
 549178 45614   1.41000e+09     6   1.41018e+09   1.41000e+09  1527565    0.01%
Elapsed time = 66.91 sec. (58244.68 ticks, tree = 14.36 MB, solutions = 16)
 586779 48437    infeasible         1.41018e+09   1.41000e+09  1624276    0.01%
 586780 48436        cutoff         1.41018e+09   1.41000e+09  1624277    0.01%
 586781 48435        cutoff         1.41018e+09   1.41000e+09  1624280    0.01%
 586782 48434        cutoff         1.41018e+09   1.41000e+09  1624284    0.01%
 586783 48433        cutoff         1.41018e+09   1.41000e+09  1624288    0.01%
 586784 48432        cutoff         1.41018e+09   1.41000e+09  1624302    0.01%
 586785 48433   1.41000e+09     8   1.41018e+09   1.41000e+09  1624306    0.01%
 586786 48434   1.41000e+09     6   1.41018e+09   1.41000e+09  1624310    0.01%
 586787 48435   1.41000e+09     6   1.41018e+09   1.41000e+09  1624311    0.01%
 586788 48434        cutoff         1.41018e+09   1.41000e+09  1624321    0.01%
Elapsed time = 71.31 sec. (62061.15 ticks, tree = 15.16 MB, solutions = 16)
 619630 51282        cutoff         1.41018e+09   1.41000e+09  1727819    0.01%
 619631 51281        cutoff         1.41018e+09   1.41000e+09  1727828    0.01%
 619632 51280    infeasible         1.41018e+09   1.41000e+09  1727832    0.01%
 619633 51279        cutoff         1.41018e+09   1.41000e+09  1727836    0.01%
 619634 51278    infeasible         1.41018e+09   1.41000e+09  1727836    0.01%
 619635 51277    infeasible         1.41018e+09   1.41000e+09  1727843    0.01%
 619636 51278   1.41000e+09     5   1.41018e+09   1.41000e+09  1727844    0.01%
 619637 51279   1.41000e+09     5   1.41018e+09   1.41000e+09  1727845    0.01%
 619638 51280   1.41000e+09     6   1.41018e+09   1.41000e+09  1727846    0.01%
 619639 51279        cutoff         1.41018e+09   1.41000e+09  1727851    0.01%
Elapsed time = 75.59 sec. (65877.50 ticks, tree = 15.90 MB, solutions = 16)
 651023 54310   1.41000e+09     8   1.41018e+09   1.41000e+09  1823937    0.01%
 651024 54311   1.41000e+09     8   1.41018e+09   1.41000e+09  1823941    0.01%
 651025 54312   1.41000e+09     6   1.41018e+09   1.41000e+09  1823946    0.01%
 651026 54313   1.41000e+09     7   1.41018e+09   1.41000e+09  1823949    0.01%
 651027 54314   1.41000e+09     6   1.41018e+09   1.41000e+09  1823951    0.01%
 651028 54313        cutoff         1.41018e+09   1.41000e+09  1823958    0.01%
 651029 54314   1.41000e+09     6   1.41018e+09   1.41000e+09  1823959    0.01%
 651030 54313        cutoff         1.41018e+09   1.41000e+09  1823966    0.01%
 651031 54312    infeasible         1.41018e+09   1.41000e+09  1823976    0.01%
 651032 54313   1.41000e+09     8   1.41018e+09   1.41000e+09  1823978    0.01%
Elapsed time = 79.74 sec. (69693.49 ticks, tree = 16.69 MB, solutions = 16)
 682686 56815        cutoff         1.41018e+09   1.41000e+09  1924232    0.01%
 682687 56815   1.41000e+09     6   1.41018e+09   1.41000e+09  1924234    0.01%
 682688 56814    infeasible         1.41018e+09   1.41000e+09  1924234    0.01%
 682689 56814   1.41000e+09     6   1.41018e+09   1.41000e+09  1924236    0.01%
 682690 56814   1.41000e+09     5   1.41018e+09   1.41000e+09  1924238    0.01%
 682691 56813    infeasible         1.41018e+09   1.41000e+09  1924238    0.01%
 682692 56812    infeasible         1.41018e+09   1.41000e+09  1924238    0.01%
 682693 56811    infeasible         1.41018e+09   1.41000e+09  1924238    0.01%
 682694 56810    infeasible         1.41018e+09   1.41000e+09  1924238    0.01%
 682695 56809        cutoff         1.41018e+09   1.41000e+09  1924248    0.01%
Elapsed time = 84.00 sec. (73509.30 ticks, tree = 17.33 MB, solutions = 16)
 714193 59101        cutoff         1.41018e+09   1.41000e+09  2020087    0.01%
 714194 59100        cutoff         1.41018e+09   1.41000e+09  2020096    0.01%
 714195 59099        cutoff         1.41018e+09   1.41000e+09  2020101    0.01%
 714196 59098        cutoff         1.41018e+09   1.41000e+09  2020106    0.01%
 714197 59097        cutoff         1.41018e+09   1.41000e+09  2020113    0.01%
 714198 59096        cutoff         1.41018e+09   1.41000e+09  2020119    0.01%
 714199 59095        cutoff         1.41018e+09   1.41000e+09  2020123    0.01%
 714200 59094        cutoff         1.41018e+09   1.41000e+09  2020128    0.01%
 714201 59093        cutoff         1.41018e+09   1.41000e+09  2020134    0.01%
 714202 59092        cutoff         1.41018e+09   1.41000e+09  2020138    0.01%
Elapsed time = 88.28 sec. (77325.23 ticks, tree = 17.91 MB, solutions = 16)
 737932 61053        cutoff         1.41018e+09   1.41000e+09  2094905    0.01%
 737933 61052    infeasible         1.41018e+09   1.41000e+09  2094905    0.01%
 737934 61051    infeasible         1.41018e+09   1.41000e+09  2094905    0.01%
 737935 61050    infeasible         1.41018e+09   1.41000e+09  2094905    0.01%
 737936 61050   1.41000e+09     6   1.41018e+09   1.41000e+09  2094907    0.01%
 737937 61050   1.41000e+09     5   1.41018e+09   1.41000e+09  2094908    0.01%
 737938 61050   1.41000e+09     6   1.41018e+09   1.41000e+09  2094909    0.01%
 737939 61050   1.41000e+09     6   1.41018e+09   1.41000e+09  2094910    0.01%
 737940 61050   1.41000e+09     5   1.41018e+09   1.41000e+09  2094911    0.01%
 737941 61050   1.41000e+09     6   1.41018e+09   1.41000e+09  2094912    0.01%
Elapsed time = 92.31 sec. (81140.98 ticks, tree = 18.41 MB, solutions = 16)
 775014 64499   1.41000e+09     6   1.41018e+09   1.41000e+09  2189895    0.01%
 775015 64499   1.41000e+09     8   1.41018e+09   1.41000e+09  2189897    0.01%
 775016 64499   1.41000e+09     8   1.41018e+09   1.41000e+09  2189898    0.01%
 775017 64499   1.41000e+09     6   1.41018e+09   1.41000e+09  2189899    0.01%
 775018 64499   1.41000e+09     8   1.41018e+09   1.41000e+09  2189900    0.01%
 775019 64499   1.41000e+09     5   1.41018e+09   1.41000e+09  2189901    0.01%
 775020 64500   1.41000e+09     5   1.41018e+09   1.41000e+09  2189902    0.01%
 775021 64499        cutoff         1.41018e+09   1.41000e+09  2189904    0.01%
 775022 64499   1.41000e+09     6   1.41018e+09   1.41000e+09  2189907    0.01%
 775023 64499   1.41000e+09     6   1.41018e+09   1.41000e+09  2189908    0.01%
Elapsed time = 96.62 sec. (84956.42 ticks, tree = 19.34 MB, solutions = 16)

Mixed integer rounding cuts applied:  3
Gomory fractional cuts applied:  1

Root node processing (before b&c):
  Real time             =    0.02 sec. (10.51 ticks)
Sequential b&c:
  Real time             =   99.98 sec. (87977.11 ticks)
                          ------------
Total (root+branch&cut) =  100.00 sec. (87987.62 ticks)

Solution pool: 16 solutions saved.

MIP - Time limit exceeded, integer feasible:  Objective =  1.4101817580e+09
Current MIP best bound =  1.4100007540e+09 (gap = 181004, 0.01%)
Solution time =  100.00 sec.  Iterations = 2266861  Nodes = 804902 (67056)
Deterministic time = 87987.62 ticks  (879.87 ticks/sec)


Incumbent solution written to file '/tmp/tmpJtoOUO.cplex.sol'.
